
Gurobi 10.0.1 (linux64) logging started Sun Nov 26 15:43:26 2023

Set parameter LogFile to value "ArtificialInstance/ExperimentV2/S2T5K1/AdSp/gurobi91.txt"
Gurobi Optimizer version 10.0.1 build v10.0.1rc0 (linux64)

CPU model: AMD EPYC 7H12 64-Core Processor, instruction set [SSE2|AVX|AVX2]
Thread count: 128 physical cores, 128 logical processors, using up to 32 threads

Academic license 656792 - for non-commercial use only - registered to b.___@student.vu.nl
Optimize a model with 3313 rows, 3123 columns and 11823 nonzeros
Model fingerprint: 0x93153103
Variable types: 0 continuous, 3123 integer (3123 binary)
Coefficient statistics:
  Matrix range     [1e+00, 1e+00]
  Objective range  [2e+00, 2e+01]
  Bounds range     [1e+00, 1e+00]
  RHS range        [1e+00, 1e+00]
Presolve removed 357 rows and 333 columns
Presolve time: 0.04s
Presolved: 2956 rows, 2790 columns, 10816 nonzeros
Variable types: 0 continuous, 2790 integer (2790 binary)
Found heuristic solution: objective 498.1613929

Root relaxation: objective 4.240083e+01, 1978 iterations, 0.06 seconds (0.05 work units)

    Nodes    |    Current Node    |     Objective Bounds      |     Work
 Expl Unexpl |  Obj  Depth IntInf | Incumbent    BestBd   Gap | It/Node Time

     0     0   42.40083    0  169  498.16139   42.40083  91.5%     -    0s
H    0     0                      77.5576860   42.40083  45.3%     -    0s
H    0     0                      75.4504489   42.40083  43.8%     -    0s
H    0     0                      72.8580345   42.40083  41.8%     -    0s
H    0     0                      44.4211528   42.40083  4.55%     -    0s
     0     0   44.01178    0  102   44.42115   44.01178  0.92%     -    0s
     0     0   44.01178    0   46   44.42115   44.01178  0.92%     -    0s
*    0     0               0      44.4023158   44.40232  0.00%     -    0s

Explored 1 nodes (2769 simplex iterations) in 0.26 seconds (0.13 work units)
Thread count was 32 (of 128 available processors)

Solution count 6: 44.4023 44.4212 72.858 ... 498.161

Optimal solution found (tolerance 1.00e-04)
Best objective 4.440231575453e+01, best bound 4.440231575453e+01, gap 0.0000%
